qbf_easy_train/easy_1788_SAT.qdimacs
p cnf 23 55
a 2 5 21 0
e 1 3 4 6 7 8 9 10 11 12 13 14 15 16 17 18 19 20 22 23 0
-4 2 0
-4 3 0
-2 -3 4 0
-6 5 0
-6 -4 0
-5 4 6 0
7 4 0
7 6 0
-4 -6 -7 0
-1 -7 -8 0
1 7 -8 0
-1 7 8 0
1 -7 8 0
-10 -8 0
-10 9 0
8 -9 10 0
-13 11 0
-13 12 0
-11 -12 13 0
14 13 0
14 2 0
-13 -2 -14 0
-15 -14 0
-15 6 0
14 -6 15 0
16 -13 -17 0
-16 13 -17 0
16 13 17 0
-16 -13 17 0
15 -17 -18 0
-15 17 -18 0
15 17 18 0
-15 -17 18 0
-19 -2 0
-19 -4 0
2 4 19 0
20 18 0
20 19 0
-18 -19 -20 0
21 -10 0
21 20 0
10 -20 -21 0
3 -2 -22 0
-3 2 -22 0
3 2 22 0
-3 -2 22 0
23 -21 0
23 -22 0
21 22 -23 0
15 -6 20 19 0
9 -20 8 0
-8 5 -22 -21 4 0
-4 -14 -3 -1 -16 0
-10 -12 9 1 0
23 0
