sat_easy_train/easy_1788_SAT.dimacs
p cnf 132 440
1 2 -3 0
-1 -2 -3 0
1 -2 3 0
-1 2 3 0
-3 4 -5 0
3 -4 -5 0
-3 -4 5 0
3 4 5 0
-8 -6 0
-8 7 0
6 -7 8 0
-9 5 0
-9 8 0
-5 -8 9 0
-1 10 -11 0
1 -10 -11 0
-1 -10 11 0
1 10 11 0
9 -11 -12 0
-9 11 -12 0
9 11 12 0
-9 -11 12 0
14 6 0
14 -13 0
-6 13 -14 0
14 -7 -15 0
-14 7 -15 0
14 7 15 0
-14 -7 15 0
-16 4 0
-16 -1 0
-4 1 16 0
-17 16 -18 0
17 -16 -18 0
-17 -16 18 0
17 16 18 0
21 -19 0
21 -20 0
19 20 -21 0
22 -18 0
22 -21 0
18 21 -22 0
-16 -22 -23 0
16 22 -23 0
-16 22 23 0
16 -22 23 0
23 24 -25 0
-23 -24 -25 0
23 -24 25 0
-23 24 25 0
15 25 -26 0
-15 -25 -26 0
15 -25 26 0
-15 25 26 0
22 -9 -27 0
-22 9 -27 0
22 9 27 0
-22 -9 27 0
28 27 0
28 -4 0
-27 4 -28 0
-29 10 0
-29 -2 0
-10 2 29 0
31 20 0
31 30 0
-20 -30 -31 0
-30 6 -32 0
30 -6 -32 0
-30 -6 32 0
30 6 32 0
-33 -31 0
-33 -32 0
31 32 33 0
-34 33 0
-34 -32 0
-33 32 34 0
29 -34 -35 0
-29 34 -35 0
29 34 35 0
-29 -34 35 0
36 28 0
36 -35 0
-28 35 -36 0
-26 36 -37 0
26 -36 -37 0
-26 -36 37 0
26 36 37 0
38 -12 0
38 37 0
12 -37 -38 0
39 31 0
39 1 0
-31 -1 -39 0
-21 -18 -40 0
21 18 -40 0
-21 18 40 0
21 -18 40 0
-40 16 -41 0
40 -16 -41 0
-40 -16 41 0
40 16 41 0
42 19 0
42 4 0
-19 -4 -42 0
43 -42 0
43 -1 0
42 1 -43 0
43 7 -44 0
-43 -7 -44 0
43 -7 44 0
-43 7 44 0
-45 41 0
-45 -44 0
-41 44 45 0
42 -46 0
-42 -46 0
46 2 -47 0
-46 -2 -47 0
46 -2 47 0
-46 2 47 0
-43 -47 -48 0
43 47 -48 0
-43 47 48 0
43 -47 48 0
-18 1 -49 0
18 -1 -49 0
-18 -1 49 0
18 1 49 0
48 49 -50 0
-48 -49 -50 0
48 -49 50 0
-48 49 50 0
51 34 0
51 -32 0
-34 32 -51 0
52 24 0
52 6 0
-24 -6 -52 0
-52 16 -53 0
52 -16 -53 0
-52 -16 53 0
52 16 53 0
54 53 0
54 33 0
-53 -33 -54 0
-51 -54 -55 0
51 54 -55 0
-51 54 55 0
51 -54 55 0
43 -52 -56 0
-43 52 -56 0
43 52 56 0
-43 -52 56 0
57 -19 0
57 2 0
19 -2 -57 0
-59 57 0
-59 -58 0
-57 58 59 0
60 11 0
60 10 0
-11 -10 -60 0
-61 4 0
-61 60 0
-4 -60 61 0
-62 -46 0
-62 -61 0
46 61 62 0
63 59 0
63 62 0
-59 -62 -63 0
64 -56 0
64 -63 0
56 63 -64 0
-65 55 0
-65 -64 0
-55 64 65 0
-66 17 0
-66 -5 0
-17 5 66 0
67 65 0
67 -66 0
-65 66 -67 0
-68 50 0
-68 67 0
-50 -67 68 0
24 46 -69 0
-24 -46 -69 0
24 -46 69 0
-24 46 69 0
-70 -9 0
-70 -23 0
9 23 70 0
71 -19 0
71 17 0
19 -17 -71 0
-70 -71 -72 0
70 71 -72 0
-70 71 72 0
70 -71 72 0
69 72 -73 0
-69 -72 -73 0
69 -72 73 0
-69 72 73 0
-74 31 0
-74 -73 0
-31 73 74 0
-76 -75 0
-76 -1 0
75 1 76 0
77 74 0
77 76 0
-74 -76 -77 0
-78 24 0
-78 -2 0
-24 2 78 0
79 21 0
79 34 0
-21 -34 -79 0
-80 21 0
-80 -79 0
-21 79 80 0
-81 -78 0
-81 -80 0
78 80 81 0
-77 -81 -82 0
77 81 -82 0
-77 81 82 0
77 -81 82 0
-83 68 0
-83 -82 0
-68 82 83 0
84 45 0
84 -83 0
-45 83 -84 0
85 -71 0
85 24 0
71 -24 -85 0
86 -60 0
86 -7 0
60 7 -86 0
87 -16 0
87 -8 0
16 8 -87 0
88 86 0
88 -87 0
-86 87 -88 0
-89 85 0
-89 88 0
-85 -88 89 0
90 10 0
90 16 0
-10 -16 -90 0
11 90 -91 0
-11 -90 -91 0
11 -90 91 0
-11 90 91 0
-92 89 0
-92 -91 0
-89 91 92 0
84 -92 -93 0
-84 92 -93 0
84 92 93 0
-84 -92 93 0
-94 -39 0
-94 93 0
39 -93 94 0
-95 17 0
-95 2 0
-17 -2 95 0
96 -95 0
96 61 0
95 -61 -96 0
-98 -19 0
-98 97 0
19 -97 98 0
-99 -96 0
-99 -98 0
96 98 99 0
-14 90 -100 0
14 -90 -100 0
-14 -90 100 0
14 90 100 0
-101 79 0
-101 14 0
-79 -14 101 0
-102 90 0
-102 -101 0
-90 101 102 0
103 100 0
103 102 0
-100 -102 -103 0
-99 -103 -104 0
99 103 -104 0
-99 103 104 0
99 -103 104 0
105 -6 0
105 58 0
6 -58 -105 0
-106 105 0
-106 -4 0
-105 4 106 0
-107 32 0
-107 -17 0
-32 17 107 0
-108 106 0
-108 107 0
-106 -107 108 0
-109 -104 0
-109 -108 0
104 108 109 0
-34 110 0
34 110 0
-111 31 0
-111 -110 0
-31 110 111 0
17 29 -112 0
-17 -29 -112 0
17 -29 112 0
-17 29 112 0
113 112 0
113 -34 0
-112 34 -113 0
-114 -43 0
-114 -113 0
43 113 114 0
115 -111 0
115 -114 0
111 114 -115 0
-116 -22 0
-116 -53 0
22 53 116 0
118 116 0
118 -117 0
-116 117 -118 0
-60 -11 -119 0
60 11 -119 0
-60 11 119 0
60 -11 119 0
-120 -119 0
-120 42 0
119 -42 120 0
-121 118 0
-121 120 0
-118 -120 121 0
31 70 -122 0
-31 -70 -122 0
31 -70 122 0
-31 70 122 0
123 121 0
123 122 0
-121 -122 -123 0
-124 -115 0
-124 123 0
115 -123 124 0
125 -69 0
125 75 0
69 -75 -125 0
-126 -60 0
-126 -125 0
60 125 126 0
127 124 0
127 -126 0
-124 126 -127 0
128 -109 0
128 -127 0
109 127 -128 0
129 3 0
129 97 0
-3 -97 -129 0
130 -128 0
130 129 0
128 -129 -130 0
-94 -130 -131 0
94 130 -131 0
-94 130 131 0
94 -130 131 0
-38 -131 -132 0
38 131 -132 0
-38 131 132 0
38 -131 132 0
11 37 -83 48 0
-79 90 28 -1 9 0
6 -4 21 114 -104 0
-27 93 21 0
-95 -55 30 54 0
49 -128 119 -113 -118 -76 0
51 54 -115 -132 -31 112 0
-81 32 -1 -53 97 0
122 128 110 -17 54 0
-88 -36 58 0
16 -2 58 0
113 38 -34 -76 -111 16 0
-74 128 -102 0
-102 94 103 -115 0
-122 -30 -129 67 -92 84 0
-62 -125 -101 -42 -119 126 0
-39 -123 126 8 -116 0
42 25 30 81 -52 0
-127 132 113 79 0
-117 30 -35 0
60 61 -32 -112 67 0
-121 -73 0
-94 64 -42 33 0
-104 130 0
-132 4 -57 0
99 -74 114 85 0
-14 -75 0
116 80 -11 102 0
79 -22 0
-2 -91 0
123 124 -51 -103 119 44 0
-56 -97 106 0
-119 9 54 -45 18 121 0
35 45 121 0
55 -38 -105 0
-59 5 74 -106 -30 20 0
110 67 47 -98 -65 0
-64 -129 41 -87 -46 0
-106 76 -111 70 0
-32 -33 0
-118 107 21 30 0
-68 29 -120 37 98 0
60 100 71 -51 57 83 0
28 -40 -78 119 23 0
-129 36 0
61 95 -88 27 26 93 0
109 -88 25 0
28 49 -20 0
-44 -48 -28 0
-64 1 -51 -44 -129 -96 0
94 84 98 25 75 -69 0
-34 68 -71 -54 -123 83 0
56 -112 -42 -90 -111 0
85 -73 -67 -106 0
78 -13 0
117 97 -132 -120 83 73 0
-112 -17 0
132 0
